10
36 404 12
284 986 5
113 639 24
328 984 20
94 884 24
70 735 18
286 918 26
840 1144 8
298 1125 8
268 1108 9
0 101 148 175 190 177 111 177 161 122 109
150 0 32 39 152 14 36 24 134 144 22
189 47 0 25 147 24 36 14 126 148 48
167 36 33 0 196 44 36 28 116 104 17
169 184 182 125 0 110 108 143 41 41 175
172 13 44 12 118 0 32 14 170 181 28
134 12 20 25 176 45 0 41 128 173 11
154 36 49 48 125 47 26 0 170 103 11
187 153 146 138 10 112 183 190 0 12 195
152 138 187 136 41 110 112 118 21 0 183
107 30 38 12 185 10 36 30 141 105 0
